4518
5373
777
4919
7524
6617
6348
6876
2800
2848
6069
741
2548
8585
7491
9305
7483
8462
9556
6677
4210
8130
9187
2203
4868
2288
9484
7893
1008
2343
1832
3008
1600
1315
4322
2773
5645
924
1361
568
9386
4950
979
3883
6509
5139
2904
3717
7149
769
